c File: data_files/evolved_graphs/g3651.col
c
c Auto generated graph
c
p edge 100 1076
e 1 6
e 1 10
e 1 14
e 1 17
e 1 28
e 1 36
e 1 38
e 1 39
e 1 50
e 1 51
e 1 54
e 1 66
e 1 72
e 1 75
e 1 88
e 1 92
e 2 3
e 2 5
e 2 14
e 2 23
e 2 25
e 2 29
e 2 30
e 2 31
e 2 33
e 2 43
e 2 44
e 2 48
e 2 52
e 2 58
e 2 63
e 2 77
e 2 79
e 2 85
e 2 87
e 2 88
e 2 91
e 2 92
e 2 94
e 3 4
e 3 7
e 3 9
e 3 10
e 3 14
e 3 19
e 3 21
e 3 24
e 3 25
e 3 31
e 3 32
e 3 34
e 3 35
e 3 36
e 3 38
e 3 41
e 3 45
e 3 48
e 3 66
e 3 71
e 3 73
e 3 75
e 3 79
e 3 80
e 3 83
e 3 84
e 3 86
e 3 93
e 3 94
e 4 12
e 4 13
e 4 20
e 4 28
e 4 30
e 4 33
e 4 39
e 4 48
e 4 57
e 4 64
e 4 66
e 4 70
e 4 71
e 4 72
e 5 14
e 5 19
e 5 20
e 5 21
e 5 26
e 5 31
e 5 33
e 5 39
e 5 48
e 5 50
e 5 52
e 5 56
e 5 59
e 5 61
e 5 63
e 5 64
e 5 69
e 5 74
e 5 79
e 5 83
e 5 93
e 6 10
e 6 12
e 6 13
e 6 15
e 6 20
e 6 28
e 6 30
e 6 32
e 6 36
e 6 37
e 6 47
e 6 48
e 6 51
e 6 53
e 6 57
e 6 59
e 6 60
e 6 62
e 6 66
e 6 68
e 6 71
e 6 74
e 6 82
e 6 84
e 6 89
e 6 94
e 7 17
e 7 19
e 7 23
e 7 29
e 7 30
e 7 31
e 7 33
e 7 36
e 7 45
e 7 56
e 7 64
e 7 67
e 7 71
e 7 85
e 8 9
e 8 15
e 8 40
e 8 42
e 8 54
e 8 56
e 8 68
e 8 72
e 8 73
e 8 74
e 8 83
e 8 84
e 8 86
e 8 90
e 8 91
e 9 11
e 9 12
e 9 15
e 9 20
e 9 22
e 9 29
e 9 37
e 9 42
e 9 43
e 9 47
e 9 51
e 9 55
e 9 58
e 9 61
e 9 68
e 9 78
e 9 80
e 9 83
e 9 88
e 9 91
e 9 96
e 10 12
e 10 15
e 10 18
e 10 19
e 10 23
e 10 29
e 10 35
e 10 46
e 10 47
e 10 60
e 10 62
e 10 65
e 10 69
e 10 81
e 10 83
e 10 86
e 10 94
e 10 97
e 11 13
e 11 16
e 11 19
e 11 23
e 11 24
e 11 32
e 11 36
e 11 46
e 11 48
e 11 51
e 11 54
e 11 57
e 11 61
e 11 63
e 11 66
e 11 67
e 11 69
e 11 78
e 11 81
e 12 19
e 12 20
e 12 32
e 12 33
e 12 36
e 12 39
e 12 59
e 12 61
e 12 62
e 12 65
e 12 67
e 12 69
e 12 71
e 12 75
e 12 76
e 12 92
e 13 18
e 13 22
e 13 27
e 13 29
e 13 42
e 13 47
e 13 49
e 13 50
e 13 54
e 13 58
e 13 63
e 13 72
e 13 76
e 13 77
e 13 79
e 13 85
e 13 88
e 13 92
e 14 15
e 14 18
e 14 19
e 14 23
e 14 24
e 14 26
e 14 27
e 14 34
e 14 39
e 14 40
e 14 45
e 14 59
e 14 64
e 14 65
e 14 67
e 14 71
e 14 73
e 14 74
e 14 76
e 14 82
e 14 83
e 14 86
e 14 88
e 14 89
e 15 16
e 15 22
e 15 25
e 15 29
e 15 36
e 15 37
e 15 38
e 15 41
e 15 51
e 15 56
e 15 58
e 15 61
e 15 68
e 15 73
e 15 76
e 15 82
e 15 83
e 15 84
e 15 85
e 15 90
e 15 93
e 15 94
e 16 23
e 16 24
e 16 25
e 16 42
e 16 43
e 16 47
e 16 48
e 16 59
e 16 63
e 16 66
e 16 74
e 16 76
e 16 93
e 17 18
e 17 20
e 17 23
e 17 26
e 17 34
e 17 38
e 17 43
e 17 44
e 17 47
e 17 51
e 17 58
e 17 59
e 17 66
e 17 67
e 17 69
e 17 70
e 17 72
e 17 75
e 17 80
e 17 82
e 17 83
e 17 85
e 18 26
e 18 35
e 18 36
e 18 39
e 18 41
e 18 42
e 18 43
e 18 44
e 18 51
e 18 53
e 18 54
e 18 56
e 18 59
e 18 63
e 18 64
e 18 70
e 18 71
e 18 75
e 18 76
e 18 79
e 18 82
e 18 85
e 18 86
e 18 89
e 18 92
e 18 97
e 19 25
e 19 30
e 19 31
e 19 37
e 19 41
e 19 42
e 19 49
e 19 52
e 19 55
e 19 58
e 19 63
e 19 64
e 19 65
e 19 69
e 19 78
e 19 79
e 19 84
e 19 86
e 19 89
e 19 91
e 20 24
e 20 33
e 20 35
e 20 45
e 20 51
e 20 52
e 20 55
e 20 61
e 20 62
e 20 64
e 20 65
e 20 73
e 20 75
e 20 79
e 20 85
e 20 88
e 20 94
e 20 97
e 21 22
e 21 34
e 21 37
e 21 44
e 21 47
e 21 49
e 21 68
e 21 70
e 21 71
e 21 74
e 21 75
e 21 76
e 21 79
e 21 81
e 21 90
e 21 100
e 22 28
e 22 31
e 22 36
e 22 37
e 22 38
e 22 39
e 22 40
e 22 45
e 22 48
e 22 59
e 22 62
e 22 68
e 22 71
e 22 75
e 22 78
e 22 83
e 22 85
e 22 88
e 22 89
e 22 96
e 22 98
e 23 26
e 23 31
e 23 35
e 23 36
e 23 37
e 23 43
e 23 57
e 23 60
e 23 65
e 23 68
e 23 73
e 23 79
e 23 89
e 24 33
e 24 34
e 24 41
e 24 42
e 24 47
e 24 53
e 24 58
e 24 61
e 24 78
e 24 83
e 24 92
e 25 29
e 25 30
e 25 35
e 25 37
e 25 55
e 25 66
e 25 67
e 25 69
e 25 77
e 25 95
e 26 27
e 26 29
e 26 38
e 26 40
e 26 45
e 26 47
e 26 50
e 26 53
e 26 54
e 26 69
e 26 70
e 26 77
e 26 84
e 26 87
e 26 88
e 27 30
e 27 35
e 27 36
e 27 44
e 27 48
e 27 53
e 27 54
e 27 59
e 27 61
e 27 65
e 27 67
e 27 68
e 27 69
e 27 72
e 27 76
e 27 77
e 27 80
e 27 87
e 28 31
e 28 37
e 28 39
e 28 42
e 28 43
e 28 44
e 28 59
e 28 63
e 28 69
e 28 70
e 28 82
e 28 91
e 29 31
e 29 32
e 29 34
e 29 46
e 29 52
e 29 56
e 29 60
e 29 63
e 29 73
e 29 74
e 30 39
e 30 46
e 30 54
e 30 55
e 30 56
e 30 58
e 30 60
e 30 64
e 30 65
e 30 66
e 30 70
e 30 78
e 30 80
e 30 90
e 30 93
e 30 95
e 31 37
e 31 40
e 31 41
e 31 56
e 31 58
e 31 60
e 31 61
e 31 65
e 31 66
e 31 67
e 31 72
e 31 74
e 31 75
e 31 77
e 31 79
e 31 82
e 31 88
e 31 91
e 31 92
e 32 37
e 32 39
e 32 40
e 32 43
e 32 54
e 32 58
e 32 59
e 32 63
e 32 65
e 32 70
e 32 72
e 32 78
e 32 79
e 32 86
e 32 87
e 32 88
e 32 96
e 33 35
e 33 37
e 33 38
e 33 47
e 33 49
e 33 50
e 33 53
e 33 55
e 33 56
e 33 62
e 33 63
e 33 64
e 33 68
e 33 70
e 33 71
e 33 74
e 33 79
e 33 81
e 33 82
e 33 86
e 33 90
e 33 93
e 33 94
e 34 35
e 34 42
e 34 47
e 34 49
e 34 54
e 34 55
e 34 64
e 34 69
e 34 77
e 34 80
e 34 82
e 34 92
e 35 37
e 35 39
e 35 56
e 35 61
e 35 67
e 35 69
e 35 75
e 35 79
e 35 86
e 35 88
e 35 93
e 35 97
e 36 44
e 36 50
e 36 51
e 36 52
e 36 55
e 36 57
e 36 60
e 36 62
e 36 64
e 36 71
e 36 75
e 36 77
e 36 80
e 36 82
e 36 83
e 36 89
e 36 91
e 37 41
e 37 43
e 37 48
e 37 53
e 37 55
e 37 56
e 37 61
e 37 62
e 37 67
e 37 74
e 37 77
e 37 80
e 37 82
e 37 83
e 37 87
e 37 91
e 37 94
e 37 100
e 38 43
e 38 46
e 38 55
e 38 57
e 38 58
e 38 66
e 38 71
e 38 73
e 38 88
e 39 45
e 39 48
e 39 50
e 39 51
e 39 53
e 39 55
e 39 59
e 39 62
e 39 63
e 39 64
e 39 72
e 39 76
e 39 83
e 39 86
e 39 88
e 39 89
e 39 90
e 39 92
e 40 53
e 40 58
e 40 67
e 40 76
e 40 79
e 40 92
e 40 94
e 41 43
e 41 52
e 41 55
e 41 58
e 41 59
e 41 68
e 41 71
e 41 72
e 41 77
e 41 78
e 41 80
e 41 82
e 41 83
e 41 84
e 41 86
e 41 89
e 42 44
e 42 51
e 42 57
e 42 66
e 42 71
e 42 74
e 42 76
e 42 80
e 42 81
e 42 90
e 42 92
e 43 51
e 43 52
e 43 55
e 43 63
e 43 68
e 43 70
e 43 74
e 43 77
e 43 79
e 43 84
e 43 92
e 43 95
e 44 47
e 44 54
e 44 58
e 44 60
e 44 62
e 44 63
e 44 65
e 44 67
e 44 69
e 44 73
e 44 74
e 44 80
e 44 85
e 44 86
e 44 87
e 44 91
e 45 47
e 45 48
e 45 53
e 45 59
e 45 74
e 45 77
e 45 78
e 45 79
e 45 87
e 45 88
e 45 94
e 45 95
e 46 49
e 46 58
e 46 71
e 46 74
e 46 77
e 46 78
e 46 81
e 46 86
e 46 89
e 47 48
e 47 50
e 47 52
e 47 54
e 47 59
e 47 63
e 47 70
e 47 73
e 47 74
e 47 75
e 47 81
e 47 82
e 47 87
e 47 89
e 47 91
e 47 94
e 47 98
e 48 51
e 48 52
e 48 53
e 48 56
e 48 61
e 48 66
e 48 67
e 48 70
e 48 79
e 48 80
e 48 82
e 48 84
e 48 93
e 48 94
e 49 52
e 49 63
e 49 78
e 49 82
e 49 85
e 49 90
e 49 92
e 49 93
e 49 94
e 50 52
e 50 54
e 50 61
e 50 65
e 50 66
e 50 67
e 50 68
e 50 75
e 50 77
e 50 80
e 50 84
e 50 92
e 50 93
e 51 60
e 51 67
e 51 70
e 51 71
e 51 74
e 51 76
e 51 77
e 51 80
e 51 89
e 51 90
e 51 91
e 51 93
e 52 61
e 52 72
e 52 73
e 52 77
e 52 82
e 52 92
e 53 56
e 53 58
e 53 60
e 53 69
e 53 71
e 53 79
e 53 80
e 53 85
e 53 88
e 53 100
e 54 60
e 54 68
e 54 72
e 54 75
e 54 86
e 54 88
e 54 89
e 54 90
e 54 92
e 54 94
e 54 100
e 55 56
e 55 62
e 55 69
e 55 70
e 55 80
e 55 83
e 55 86
e 55 90
e 55 94
e 55 99
e 55 100
e 56 60
e 56 66
e 56 67
e 56 87
e 56 89
e 56 100
e 57 61
e 57 63
e 57 74
e 57 79
e 57 81
e 57 88
e 57 94
e 58 64
e 58 65
e 58 67
e 58 68
e 58 75
e 58 83
e 59 62
e 59 63
e 59 73
e 59 74
e 59 76
e 59 79
e 59 81
e 59 82
e 59 84
e 59 86
e 59 87
e 59 90
e 59 91
e 59 98
e 60 62
e 60 63
e 60 72
e 60 78
e 60 79
e 60 86
e 60 89
e 60 90
e 61 62
e 61 64
e 61 65
e 61 67
e 61 69
e 61 70
e 61 71
e 61 75
e 61 77
e 61 79
e 61 81
e 61 84
e 61 85
e 61 86
e 61 88
e 61 92
e 61 94
e 62 64
e 62 80
e 62 84
e 62 85
e 62 86
e 62 92
e 62 94
e 63 66
e 63 67
e 63 69
e 63 71
e 63 80
e 63 88
e 63 90
e 63 91
e 64 67
e 64 77
e 64 78
e 64 80
e 64 81
e 64 82
e 64 86
e 64 90
e 64 93
e 64 94
e 64 99
e 65 69
e 65 70
e 65 73
e 65 78
e 65 79
e 65 82
e 65 84
e 65 89
e 65 93
e 66 69
e 66 72
e 66 78
e 66 79
e 66 80
e 66 82
e 66 83
e 66 86
e 66 88
e 67 73
e 67 80
e 67 83
e 67 97
e 68 69
e 68 71
e 68 72
e 68 74
e 68 75
e 68 81
e 68 83
e 68 88
e 68 91
e 69 73
e 69 81
e 69 83
e 69 89
e 69 90
e 70 72
e 70 79
e 70 83
e 70 84
e 70 86
e 70 87
e 70 92
e 71 73
e 71 74
e 71 90
e 72 74
e 72 75
e 72 94
e 73 78
e 73 81
e 73 88
e 73 92
e 73 96
e 73 97
e 74 80
e 74 82
e 74 83
e 74 84
e 74 85
e 74 87
e 74 89
e 74 92
e 74 94
e 74 95
e 75 79
e 75 80
e 75 85
e 75 86
e 75 88
e 75 92
e 76 79
e 76 86
e 76 90
e 77 80
e 77 93
e 78 79
e 78 90
e 78 92
e 79 83
e 79 84
e 79 88
e 79 92
e 79 99
e 80 82
e 80 83
e 80 84
e 80 87
e 80 91
e 80 93
e 80 98
e 81 82
e 81 84
e 81 87
e 81 88
e 81 91
e 81 92
e 81 93
e 81 99
e 82 96
e 82 99
e 83 86
e 83 87
e 83 90
e 83 95
e 83 96
e 83 98
e 83 100
e 85 89
e 85 90
e 86 91
e 87 89
e 87 99
e 88 90
e 88 96
e 88 99
e 89 90
e 89 93
e 90 94
e 91 99
e 92 95
e 94 99
e 96 99
e 97 100
